NAME: concorde13
TYPE: TSP
COMMENT: Generated by CCutil_writetsplib
COMMENT: Write called for by Concorde GUI
DIMENSION: 13
EDGE_WEIGHT_TYPE: EUC_2D
NODE_COORD_SECTION
1 25.816993 21.261603
2 32.352941 65.426160
3 34.477124 10.839662
4 35.702614 23.282700
5 42.084967 90.109705
6 52.650327 80.016878
7 27.467320 64.556962
8 11.676471 76.160338
9 32.862745 55.274262
10 43.571895 53.164557
11 26.183007 69.198312
12 84.820261 65.822785
13 69.696969 69.696969
